FILENAME:   /home/mcs001/s132664/testsets/IP/miplib2017/chromaticindex256-8.mps.gz
SETTINGS:   settings_isopr_ostrowskidynamicbranching_avoidsubtreenodes
TIMELIMIT:  7200
OUTPUTNAME: final_miplib_symretope_if_extended_generating_set_cpx_v802__settings_isopr_ostrowskidynamicbranching_avoidsubtreenodes__2__
BINNAME:    bin/symmetries.linux.x86_64.gnu.opt.cpx
BASENAME:   chromaticindex256-8.mps.gz
SEED:       2
@01 /home/mcs001/s132664/testsets/IP/miplib2017/chromaticindex256-8.mps.gz ===========
@02 chromaticindex256-8.mps.gz
@03 1686575810
SCIP version 8.0.2 [precision: 8 byte] [memory: block] [mode: optimized] [LP solver: CPLEX 20.1.0.0] [GitHash: 5f0473c]
Copyright (C) 2002-2022 Konrad-Zuse-Zentrum fuer Informationstechnik Berlin (ZIB)

Symmetry handling routines - (c) Marc Pfetsch, Thomas Rehn, Christopher Hojny.
[GitHash: a1587cb]


Turned off presolver <gateextraction>.
reading parameter file <../settings/settings_isopr_ostrowskidynamicbranching_avoidsubtreenodes.set> ...

Changed settings:
limits/time = 7200
limits/restarts = 0
randomization/randomseedshift = 2
constraints/orbitope/sepafreq = -1
constraints/orbitope/propfreq = 1
presolving/gateextraction/maxrounds = 0
propagating/isoprune/avoidsubtreenodes = TRUE
useisoprune = TRUE


solving problem ...

original problem has 18432 variables (18432 bin, 0 int, 0 impl, 0 cont) and 16895 constraints
presolving:
(round 1, exhaustive) 0 del vars, 0 del conss, 0 add conss, 0 chg bounds, 0 chg sides, 0 chg coeffs, 16895 upgd conss, 0 impls, 16895 clqs
   (0.5s) probing: 51/18432 (0.3%) - 0 fixings, 0 aggregations, 0 implications, 0 bound changes
   (0.5s) probing aborted: 50/50 successive totally useless probings
Required symmetry:			(1 bin, 0 int, 0 cont); (fixed: 0 bin, 1 int, 0 cont)
Time for symmetry detection:		0.26 	(matrix graph, 64510 nodes, 135144 edges)
Number of generators:			4 	(max: 1500)
Order of symmetry group:		48
Log10 of symmetry group order:		1.7
Number of vars moved by some symmetry:	18432
Total time for symmetry detection:	0.27

Turned off presolver <domcol>.
Turned off presolver <components>.

presolving (2 rounds: 2 fast, 2 medium, 2 exhaustive):
 0 deleted vars, 0 deleted constraints, 0 added constraints, 0 tightened bounds, 0 added holes, 0 changed sides, 0 changed coefficients
 0 implications, 16895 cliques
presolved problem has 18432 variables (18432 bin, 0 int, 0 impl, 0 cont) and 16896 constraints
  16895 constraints of type <setppc>
      1 constraints of type <symmetries>
transformed objective value is always integral (scale: 1)
Presolving Time: 0.78

 time | node  | left  |LP iter|LP it/n|mem/heur|mdpt |frac |vars |cons |cols |rows |cuts |confs|strbr|  dualbound   | primalbound  |  gap   
  2.7s|     1 |     0 |     1 |     - |   177M |   0 |  12k|  18k|  16k|  18k|  16k|   0 |  17 |   0 | 3.000000e+00 |      --      |    Inf 
o20.8s|     1 |     0 | 12702 |     - |feaspump|   0 |   0 |  18k|  16k|  18k|  16k|   0 |  18 |   0 | 3.000000e+00 | 4.000000e+00 |  33.33%
 26.6s|     1 |     2 | 12702 |     - |   199M |   0 |  12k|  18k|  16k|  18k|  16k|   0 |  18 |  19 | 3.000000e+00 | 4.000000e+00 |  33.33%
  200s|   100 |    73 | 54672 | 423.9 |   205M |  20 |5826 |  18k|  17k|  18k|  16k|   0 | 326 |  19 | 3.000000e+00 | 4.000000e+00 |  33.33%
  343s|   200 |   145 | 64107 | 258.3 |   209M |  21 |5857 |  18k|  17k|  18k|  16k|   0 | 550 |  19 | 3.000000e+00 | 4.000000e+00 |  33.33%
  474s|   300 |   209 | 70749 | 194.1 |   214M |  21 |   - |  18k|  17k|  18k|  16k|   0 | 587 |  19 | 3.000000e+00 | 4.000000e+00 |  33.33%
  632s|   400 |   285 | 81197 | 171.7 |   218M |  21 |5774 |  18k|  17k|  18k|  16k|   0 | 909 |  19 | 3.000000e+00 | 4.000000e+00 |  33.33%
  816s|   500 |   350 |121187 | 217.4 |   221M |  40 |5541 |  18k|  17k|  18k|  16k|   0 |1080 |  19 | 3.000000e+00 | 4.000000e+00 |  33.33%
  954s|   600 |   386 |124318 | 186.3 |   221M |  75 |   - |  18k|  18k|  18k|  16k|   0 |1128 |  19 | 3.000000e+00 | 4.000000e+00 |  33.33%
 1135s|   700 |   402 |128234 | 165.3 |   221M |  75 |5065 |  18k|  18k|  18k|  16k|   0 |1162 |  19 | 3.000000e+00 | 4.000000e+00 |  33.33%
 1272s|   800 |   428 |132667 | 150.1 |   221M |  76 |5002 |  18k|  18k|  18k|  16k|   0 |1178 |  19 | 3.000000e+00 | 4.000000e+00 |  33.33%
 1423s|   900 |   458 |136587 | 137.8 |   221M |  84 |   - |  18k|  18k|  18k|  16k|   0 |1226 |  19 | 3.000000e+00 | 4.000000e+00 |  33.33%
 1584s|  1000 |   484 |139205 | 126.6 |   221M |  96 |   - |  18k|  18k|  18k|  16k|   0 |1263 |  19 | 3.000000e+00 | 4.000000e+00 |  33.33%
 1715s|  1100 |   482 |141493 | 117.2 |   221M |  96 |   - |  18k|  18k|  18k|  16k|   0 |1263 |  19 | 3.000000e+00 | 4.000000e+00 |  33.33%
 1853s|  1200 |   490 |153833 | 117.7 |   221M |  97 |   - |  18k|  18k|  18k|  16k|   0 |1267 |  19 | 3.000000e+00 | 4.000000e+00 |  33.33%
 time | node  | left  |LP iter|LP it/n|mem/heur|mdpt |frac |vars |cons |cols |rows |cuts |confs|strbr|  dualbound   | primalbound  |  gap   
 1986s|  1300 |   500 |156520 | 110.7 |   221M | 100 |4817 |  18k|  18k|  18k|  16k|   0 |1267 |  19 | 3.000000e+00 | 4.000000e+00 |  33.33%
 2291s|  1400 |   520 |159004 | 104.6 |   221M | 121 |4566 |  18k|  18k|  18k|  16k|   0 |1285 |  19 | 3.000000e+00 | 4.000000e+00 |  33.33%
 2439s|  1500 |   618 |162741 | 100.1 |   223M | 220 |4064 |  18k|  18k|  18k|  16k|   0 |1285 |  19 | 3.000000e+00 | 4.000000e+00 |  33.33%
 3015s|  1600 |   692 |165463 |  95.5 |   223M | 292 |3420 |  18k|  18k|  18k|  16k|   0 |1290 |  19 | 3.000000e+00 | 4.000000e+00 |  33.33%
 3392s|  1700 |   721 |168373 |  91.6 |   224M | 314 |   - |  18k|  18k|  18k|  16k|   0 |1303 |  19 | 3.000000e+00 | 4.000000e+00 |  33.33%
 3883s|  1800 |   720 |170408 |  87.7 |   224M | 314 |3188 |  18k|  18k|  18k|  16k|   0 |1323 |  19 | 3.000000e+00 | 4.000000e+00 |  33.33%
 4098s|  1900 |   713 |171951 |  83.9 |   224M | 314 |3244 |  18k|  18k|  18k|  16k|   0 |1357 |  19 | 3.000000e+00 | 4.000000e+00 |  33.33%
 4308s|  2000 |   702 |173829 |  80.6 |   224M | 314 |   - |  18k|  18k|  18k|  16k|   0 |1370 |  19 | 3.000000e+00 | 4.000000e+00 |  33.33%
 4490s|  2100 |   694 |176411 |  78.0 |   224M | 314 |3481 |  18k|  18k|  18k|  16k|   0 |1373 |  19 | 3.000000e+00 | 4.000000e+00 |  33.33%
 4668s|  2200 |   684 |178819 |  75.5 |   224M | 314 |3553 |  18k|  18k|  18k|  16k|   0 |1373 |  19 | 3.000000e+00 | 4.000000e+00 |  33.33%
 4842s|  2300 |   672 |181333 |  73.3 |   224M | 314 |   - |  18k|  18k|  18k|  16k|   0 |1373 |  19 | 3.000000e+00 | 4.000000e+00 |  33.33%
 5014s|  2400 |   662 |183788 |  71.3 |   224M | 314 |   - |  18k|  18k|   0 |   0 |   0 |1377 |  19 | 3.000000e+00 | 4.000000e+00 |  33.33%
 5383s|  2500 |   654 |186378 |  69.5 |   224M | 314 |   - |  18k|  18k|  18k|  16k|   0 |1377 |  19 | 3.000000e+00 | 4.000000e+00 |  33.33%
 5548s|  2600 |   644 |189089 |  67.9 |   224M | 314 |   - |  18k|  18k|  18k|  16k|   0 |1377 |  19 | 3.000000e+00 | 4.000000e+00 |  33.33%
 5709s|  2700 |   638 |191649 |  66.3 |   224M | 314 |3832 |  18k|  18k|  18k|  16k|   0 |1381 |  19 | 3.000000e+00 | 4.000000e+00 |  33.33%
 time | node  | left  |LP iter|LP it/n|mem/heur|mdpt |frac |vars |cons |cols |rows |cuts |confs|strbr|  dualbound   | primalbound  |  gap   
 5872s|  2800 |   636 |194011 |  64.8 |   224M | 314 |   - |  18k|  18k|  18k|  16k|   0 |1381 |  19 | 3.000000e+00 | 4.000000e+00 |  33.33%
 6028s|  2900 |   638 |196348 |  63.3 |   224M | 314 |   - |  18k|  18k|  18k|  16k|   0 |1381 |  19 | 3.000000e+00 | 4.000000e+00 |  33.33%
 6190s|  3000 |   630 |198403 |  61.9 |   224M | 314 |   - |  18k|  18k|  18k|  16k|   0 |1384 |  19 | 3.000000e+00 | 4.000000e+00 |  33.33%
 6346s|  3100 |   632 |200700 |  60.7 |   224M | 314 |   - |  18k|  18k|  18k|  16k|   0 |1384 |  19 | 3.000000e+00 | 4.000000e+00 |  33.33%
 6505s|  3200 |   634 |202820 |  59.4 |   224M | 314 |4619 |  18k|  18k|  18k|  16k|   0 |1399 |  19 | 3.000000e+00 | 4.000000e+00 |  33.33%
 6675s|  3300 |   632 |205124 |  58.3 |   224M | 314 |4155 |  18k|  18k|  18k|  16k|   0 |1400 |  19 | 3.000000e+00 | 4.000000e+00 |  33.33%
 6819s|  3400 |   636 |207296 |  57.3 |   224M | 314 |   - |  18k|  18k|  18k|  16k|   0 |1400 |  19 | 3.000000e+00 | 4.000000e+00 |  33.33%
 6960s|  3500 |   634 |209087 |  56.1 |   224M | 314 |4596 |  18k|  18k|  18k|  16k|   0 |1400 |  19 | 3.000000e+00 | 4.000000e+00 |  33.33%
 7101s|  3600 |   642 |211412 |  55.2 |   224M | 314 |   - |  18k|  18k|  18k|  16k|   0 |1400 |  19 | 3.000000e+00 | 4.000000e+00 |  33.33%

SCIP Status        : solving was interrupted [time limit reached]
Solving Time (sec) : 7200.86
Solving Nodes      : 3670
Primal Bound       : +4.00000000000000e+00 (1 solutions)
Dual Bound         : +3.00000000000000e+00
Gap                : 33.33 %

Number of variables fixed to 0 by isomorphism pruning:	     9
Number of variables fixed to 1 by isomorphism pruning:	     0
@04 1686583011
